WARNING: for repeatability, setting FPU to use double precision
============================[ Problem Statistics ]=============================
|                                                                             |
|  Number of variables:        228255                                         |
|  Number of clauses:          532464                                         |
|  Parse time:                   0.30 s                                       |
|                                                                             |
============================[ Search Statistics ]==============================
| Conflicts |          ORIGINAL         |          LEARNT          | Progress |
|           |    Vars  Clauses Literals |    Limit  Clauses Lit/Cl |          |
===============================================================================
|       100 |  126652   511154  1148160 |   187423      100     14 | 44.513 % |
|       250 |  126652   511154  1148160 |   206165      250     14 | 44.513 % |
|       475 |  126652   511154  1148160 |   226781      475     19 | 44.513 % |
|       812 |  126652   511154  1148160 |   249460      812     45 | 44.513 % |
===============================================================================
restarts              : 8
conflicts             : 1261           (1010 /sec)
decisions             : 17632          (0.00 % random) (14127 /sec)
propagations          : 3279347        (2627518 /sec)
conflict literals     : 81790          (7.62 % deleted)
Memory used           : 61.00 MB
CPU time              : 1.24808 s

SATISFIABLE
